(set-info :smt-lib-version 2.6)
(set-logic QF_NIA)
(set-info :source |
Generated by: Cristina Borralleras, Daniel Larraz, Albert Oliveras, Enric Rodriguez-Carbonell, Albert Rubio
Generated on: 2017-04-27
Generator: VeryMax
Application: Termination proving
Target solver: barcelogic
|)
(set-info :license "https://creativecommons.org/licenses/by/4.0/")
(set-info :category "industrial")
(set-info :status sat)
(declare-fun Nl37__const_1132^01 () Int)
(declare-fun Nl37__const_15^01 () Int)
(declare-fun Nl37__const_1872^01 () Int)
(declare-fun Nl37cmd1^01 () Int)
(declare-fun Nl37cmd2^01 () Int)
(declare-fun Nl37i16^01 () Int)
(declare-fun Nl37__const_1132^02 () Int)
(declare-fun Nl37__const_15^02 () Int)
(declare-fun Nl37__const_1872^02 () Int)
(declare-fun Nl37cmd1^02 () Int)
(declare-fun Nl37cmd2^02 () Int)
(declare-fun Nl37i16^02 () Int)
(declare-fun lam0n0 () Int)
(declare-fun lam0n1 () Int)
(declare-fun lam0n2 () Int)
(declare-fun lam0n3 () Int)
(declare-fun lam0n4 () Int)
(declare-fun lam0n5 () Int)
(declare-fun Nl37CT1 () Int)
(declare-fun Nl37CT2 () Int)
(declare-fun lam1n0 () Int)
(declare-fun lam1n1 () Int)
(declare-fun lam1n2 () Int)
(declare-fun lam1n3 () Int)
(declare-fun lam1n4 () Int)
(declare-fun lam1n5 () Int)
(declare-fun lam2n0 () Int)
(declare-fun lam2n1 () Int)
(declare-fun lam2n2 () Int)
(declare-fun lam2n3 () Int)
(declare-fun lam2n4 () Int)
(declare-fun lam2n5 () Int)
(declare-fun lam3n0 () Int)
(declare-fun lam3n1 () Int)
(declare-fun lam3n2 () Int)
(declare-fun lam3n3 () Int)
(declare-fun lam4n0 () Int)
(declare-fun lam4n1 () Int)
(declare-fun lam4n2 () Int)
(declare-fun lam4n3 () Int)
(declare-fun __const_1132^0 () Int)
(declare-fun cmd1^0 () Int)
(declare-fun __const_15^0 () Int)
(declare-fun cmd2^0 () Int)
(declare-fun i16^0 () Int)
(declare-fun undef12771 () Int)
(declare-fun __const_1872^0 () Int)
(declare-fun lam5n0 () Int)
(declare-fun lam5n1 () Int)
(declare-fun lam5n2 () Int)
(declare-fun lam5n3 () Int)
(declare-fun lam5n4 () Int)
(declare-fun lam5n5 () Int)
(declare-fun lam6n0 () Int)
(declare-fun lam6n1 () Int)
(declare-fun lam6n2 () Int)
(declare-fun lam6n3 () Int)
(declare-fun lam6n4 () Int)
(declare-fun lam6n5 () Int)
;(assert ( and ( <= ( - 1 ) Nl37__const_1132^01 ) ( <= Nl37__const_1132^01 1 ) ( <= ( - 1 ) Nl37__const_15^01 ) ( <= Nl37__const_15^01 1 ) ( <= ( - 1 ) Nl37__const_1872^01 ) ( <= Nl37__const_1872^01 1 ) ( <= ( - 1 ) Nl37cmd1^01 ) ( <= Nl37cmd1^01 1 ) ( <= ( - 1 ) Nl37cmd2^01 ) ( <= Nl37cmd2^01 1 ) ( <= ( - 1 ) Nl37i16^01 ) ( <= Nl37i16^01 1 ) ( <= ( - 1 ) Nl37__const_1132^02 ) ( <= Nl37__const_1132^02 1 ) ( <= ( - 1 ) Nl37__const_15^02 ) ( <= Nl37__const_15^02 1 ) ( <= ( - 1 ) Nl37__const_1872^02 ) ( <= Nl37__const_1872^02 1 ) ( <= ( - 1 ) Nl37cmd1^02 ) ( <= Nl37cmd1^02 1 ) ( <= ( - 1 ) Nl37cmd2^02 ) ( <= Nl37cmd2^02 1 ) ( <= ( - 1 ) Nl37i16^02 ) ( <= Nl37i16^02 1 ) ))
;(assert ( or ( and ( >= lam0n0 0 ) ( >= lam0n1 0 ) ( >= lam0n2 0 ) ( >= lam0n3 0 ) ( >= lam0n4 0 ) ( >= lam0n5 0 ) ( > ( + ( * Nl37CT1 lam0n4 ) ( * Nl37CT2 lam0n5 ) ( - 1 ) ) 0 ) ( = ( + ( * ( - 1 ) lam0n0 ) ( * Nl37__const_1132^01 lam0n4 ) ( * Nl37__const_1132^02 lam0n5 ) ) 0 ) ( = ( + ( * 1 lam0n1 ) ( * Nl37__const_15^01 lam0n4 ) ( * Nl37__const_15^02 lam0n5 ) ) 0 ) ( = ( + ( * Nl37__const_1872^01 lam0n4 ) ( * Nl37__const_1872^02 lam0n5 ) ) 0 ) ( = ( + ( * 1 lam0n0 ) ( * ( - 1 ) lam0n2 ) ( * Nl37cmd1^01 lam0n4 ) ( * Nl37cmd1^02 lam0n5 ) ) 0 ) ( = ( + ( * ( - 1 ) lam0n1 ) ( * 1 lam0n2 ) ( * Nl37cmd2^01 lam0n4 ) ( * Nl37cmd2^02 lam0n5 ) ) 0 ) ( = ( + ( * ( - 1 ) lam0n3 ) ( * Nl37i16^01 lam0n4 ) ( * Nl37i16^02 lam0n5 ) ) 0 ) ) ( and ( >= lam1n0 0 ) ( >= lam1n1 0 ) ( >= lam1n2 0 ) ( >= lam1n3 0 ) ( >= lam1n4 0 ) ( >= lam1n5 0 ) ( > ( + ( * Nl37CT1 lam1n4 ) ( * Nl37CT2 lam1n5 ) ( - 1 ( + Nl37CT1 ( * Nl37i16^01 ( - 1 ) ) ) ) ) 0 ) ( = ( + ( * ( - 1 ) lam1n0 ) ( * Nl37__const_1132^01 lam1n4 ) ( * Nl37__const_1132^02 lam1n5 ) ( - ( + 0 Nl37__const_1132^01 ) ) ) 0 ) ( = ( + ( * 1 lam1n1 ) ( * Nl37__const_15^01 lam1n4 ) ( * Nl37__const_15^02 lam1n5 ) ( - ( + 0 Nl37__const_15^01 ) ) ) 0 ) ( = ( + ( * Nl37__const_1872^01 lam1n4 ) ( * Nl37__const_1872^02 lam1n5 ) ( - ( + 0 Nl37__const_1872^01 ) ) ) 0 ) ( = ( + ( * 1 lam1n0 ) ( * ( - 1 ) lam1n2 ) ( * Nl37cmd1^01 lam1n4 ) ( * Nl37cmd1^02 lam1n5 ) ( - ( + 0 Nl37cmd1^01 ) ) ) 0 ) ( = ( + ( * ( - 1 ) lam1n1 ) ( * 1 lam1n2 ) ( * Nl37cmd2^01 lam1n4 ) ( * Nl37cmd2^02 lam1n5 ) ( - ( + 0 Nl37cmd2^01 ) ) ) 0 ) ( = ( + ( * ( - 1 ) lam1n3 ) ( * Nl37i16^01 lam1n4 ) ( * Nl37i16^02 lam1n5 ) ( - ( + 0 ( * Nl37i16^01 1 ) ) ) ) 0 ) ) ))
;(assert ( or ( and ( >= lam0n0 0 ) ( >= lam0n1 0 ) ( >= lam0n2 0 ) ( >= lam0n3 0 ) ( >= lam0n4 0 ) ( >= lam0n5 0 ) ( > ( + ( * Nl37CT1 lam0n4 ) ( * Nl37CT2 lam0n5 ) ( - 1 ) ) 0 ) ( = ( + ( * ( - 1 ) lam0n0 ) ( * Nl37__const_1132^01 lam0n4 ) ( * Nl37__const_1132^02 lam0n5 ) ) 0 ) ( = ( + ( * 1 lam0n1 ) ( * Nl37__const_15^01 lam0n4 ) ( * Nl37__const_15^02 lam0n5 ) ) 0 ) ( = ( + ( * Nl37__const_1872^01 lam0n4 ) ( * Nl37__const_1872^02 lam0n5 ) ) 0 ) ( = ( + ( * 1 lam0n0 ) ( * ( - 1 ) lam0n2 ) ( * Nl37cmd1^01 lam0n4 ) ( * Nl37cmd1^02 lam0n5 ) ) 0 ) ( = ( + ( * ( - 1 ) lam0n1 ) ( * 1 lam0n2 ) ( * Nl37cmd2^01 lam0n4 ) ( * Nl37cmd2^02 lam0n5 ) ) 0 ) ( = ( + ( * ( - 1 ) lam0n3 ) ( * Nl37i16^01 lam0n4 ) ( * Nl37i16^02 lam0n5 ) ) 0 ) ) ( and ( >= lam2n0 0 ) ( >= lam2n1 0 ) ( >= lam2n2 0 ) ( >= lam2n3 0 ) ( >= lam2n4 0 ) ( >= lam2n5 0 ) ( > ( + ( * Nl37CT1 lam2n4 ) ( * Nl37CT2 lam2n5 ) ( - 1 ( + Nl37CT2 ( * Nl37i16^02 ( - 1 ) ) ) ) ) 0 ) ( = ( + ( * ( - 1 ) lam2n0 ) ( * Nl37__const_1132^01 lam2n4 ) ( * Nl37__const_1132^02 lam2n5 ) ( - ( + 0 Nl37__const_1132^02 ) ) ) 0 ) ( = ( + ( * 1 lam2n1 ) ( * Nl37__const_15^01 lam2n4 ) ( * Nl37__const_15^02 lam2n5 ) ( - ( + 0 Nl37__const_15^02 ) ) ) 0 ) ( = ( + ( * Nl37__const_1872^01 lam2n4 ) ( * Nl37__const_1872^02 lam2n5 ) ( - ( + 0 Nl37__const_1872^02 ) ) ) 0 ) ( = ( + ( * 1 lam2n0 ) ( * ( - 1 ) lam2n2 ) ( * Nl37cmd1^01 lam2n4 ) ( * Nl37cmd1^02 lam2n5 ) ( - ( + 0 Nl37cmd1^02 ) ) ) 0 ) ( = ( + ( * ( - 1 ) lam2n1 ) ( * 1 lam2n2 ) ( * Nl37cmd2^01 lam2n4 ) ( * Nl37cmd2^02 lam2n5 ) ( - ( + 0 Nl37cmd2^02 ) ) ) 0 ) ( = ( + ( * ( - 1 ) lam2n3 ) ( * Nl37i16^01 lam2n4 ) ( * Nl37i16^02 lam2n5 ) ( - ( + 0 ( * Nl37i16^02 1 ) ) ) ) 0 ) ) ))
;(assert ( and ( not ( <= ( + 1 __const_1132^0 ( * ( - 1 ) cmd1^0 ) ) 0 ) ) ( <= ( + __const_15^0 ( * ( - 1 ) cmd2^0 ) ) 0 ) ( not ( <= ( + 1 cmd1^0 ( * ( - 1 ) cmd2^0 ) ) 0 ) ) ( = ( + i16^0 ( * ( - 1 ) undef12771 ) ) 0 ) ( <= ( + Nl37CT1 ( * ( + 0 Nl37__const_1132^01 ) __const_1132^0 ) ( * ( + 0 Nl37__const_15^01 ) __const_15^0 ) ( * ( + 0 Nl37__const_1872^01 ) __const_1872^0 ) ( * ( + 0 Nl37cmd1^01 ) cmd1^0 ) ( * ( + 0 Nl37cmd2^01 ) cmd2^0 ) ( * ( + 0 Nl37i16^01 ) i16^0 ) ) 0 ) ( <= ( + Nl37CT2 ( * ( + 0 Nl37__const_1132^02 ) __const_1132^0 ) ( * ( + 0 Nl37__const_15^02 ) __const_15^0 ) ( * ( + 0 Nl37__const_1872^02 ) __const_1872^0 ) ( * ( + 0 Nl37cmd1^02 ) cmd1^0 ) ( * ( + 0 Nl37cmd2^02 ) cmd2^0 ) ( * ( + 0 Nl37i16^02 ) i16^0 ) ) 0 ) ))
(assert ( = ( + ( * ( - 1 ) lam0n3 )  ( * Nl37i16^02 lam0n5 ) ) 0 ) )
(check-sat)
(exit)
